(set-info :source |printed by MathSAT|)
(declare-fun *signed_long_int@4 (Real) Real)
(declare-fun |parse_header::__CPAchecker_TMP_0@4| () Real)
(declare-fun |parse_header::__CPAchecker_TMP_2@3| () Real)
(declare-fun |main::in_buf@3| () Real)
(declare-fun |parse_header::__CPAchecker_TMP_0@2| () Real)
(declare-fun |__ADDRESS_OF_main::in_buf| () Real)
(declare-fun |parse_header::l@4| () Real)
(declare-fun |__ADDRESS_OF_main::out_buf| () Real)
(declare-fun |__ADDRESS_OF_parse_header::end| () Real)
(declare-fun |main::input@1| () Real)
(declare-fun |__ADDRESS_OF_main::__CPAchecker_TMP_1| () Real)
(declare-fun |parse_header::l@7| () Real)
(declare-fun |__ADDRESS_OF_main::r| () Real)
(declare-fun |parse_header::parse@10| () Real)
(declare-fun |__ADDRESS_OF_parse_header::version| () Real)
(declare-fun |main::in_buf@8| () Real)
(declare-fun |__ADDRESS_OF_main::tmp| () Real)
(declare-fun Num@4 () Real)
(declare-fun |parse_header::parse@9| () Real)
(declare-fun |__ADDRESS_OF_parse_header::__CPAchecker_TMP_2| () Real)
(declare-fun |parse_header::l@9| () Real)
(declare-fun |main::in_buf_save@3| () Real)
(declare-fun |parse_header::parse@17| () Real)
(declare-fun |__ADDRESS_OF_parse_header::l| () Real)
(declare-fun Num@5 () Real)
(declare-fun |parse_header::parse@14| () Real)
(declare-fun |main::output@1| () Real)
(declare-fun |main::in_buf@4| () Real)
(declare-fun |parse_header::parse@8| () Real)
(declare-fun |parse_header::__CPAchecker_TMP_0@10| () Real)
(declare-fun Num@2 () Real)
(declare-fun |parse_header::l@10| () Real)
(declare-fun |__ADDRESS_OF___VERIFIER_successful_alloc_*void#0| () Real)
(declare-fun |main::in_buf@6| () Real)
(declare-fun |main::out_buf@3| () Real)
(declare-fun *unsigned_char@1 (Real) Real)
(declare-fun |parse_header::__CPAchecker_TMP_0@9| () Real)
(declare-fun |__ADDRESS_OF_main::dst_len| () Real)
(declare-fun |parse_header::parse@11| () Real)
(declare-fun |main::fill@1| () Real)
(declare-fun |parse_header::__CPAchecker_TMP_0@8| () Real)
(declare-fun |main::in_buf@5| () Real)
(declare-fun __ADDRESS_OF_Num () Real)
(declare-fun |parse_header::parse@7| () Real)
(declare-fun |parse_header::parse@3| () Real)
(declare-fun |parse_header::parse@18| () Real)
(declare-fun |parse_header::parse@4| () Real)
(declare-fun __BASE_ADDRESS_OF__ (Real) Real)
(declare-fun |parse_header::l@8| () Real)
(declare-fun |__ADDRESS_OF___VERIFIER_successful_alloc_*void#34| () Real)
(declare-fun *signed_long_int@2 (Real) Real)
(declare-fun |parse_header::skip@2| () Real)
(declare-fun |parse_header::__CPAchecker_TMP_0@6| () Real)
(declare-fun get_unaligned_be16 (Real) Real)
(declare-fun |parse_header::parse@6| () Real)
(declare-fun |main::flush@1| () Real)
(declare-fun |parse_header::l@5| () Real)
(declare-fun |parse_header::__CPAchecker_TMP_0@3| () Real)
(declare-fun |parse_header::__retval__@2| () Real)
(declare-fun |main::skip@2| () Real)
(declare-fun |parse_header::__CPAchecker_TMP_3@2| () Real)
(declare-fun |parse_header::__CPAchecker_TMP_0@5| () Real)
(declare-fun get_unaligned_be32 (Real) Real)
(declare-fun |main::dst_len@3| () Real)
(declare-fun |main::in_buf_save@4| () Real)
(declare-fun |parse_header::l@13| () Real)
(declare-fun __ADDRESS_OF_LZO_E_OK () Real)
(declare-fun |__ADDRESS_OF_parse_header::parse| () Real)
(declare-fun |__ADDRESS_OF_main::skip| () Real)
(declare-fun _&_ (Real Real) Real)
(declare-fun |parse_header::parse@13| () Real)
(declare-fun Num@3 () Real)
(declare-fun |parse_header::l@12| () Real)
(declare-fun |__ADDRESS_OF_parse_header::__CPAchecker_TMP_0| () Real)
(declare-fun |parse_header::parse@16| () Real)
(declare-fun |__ADDRESS_OF___VERIFIER_successful_alloc_*void#33| () Real)
(declare-fun |main::posp@1| () Real)
(declare-fun |main::in_len@3| () Real)
(declare-fun |parse_header::parse@5| () Real)
(declare-fun |main::in_buf@7| () Real)
(declare-fun |parse_header::parse@15| () Real)
(declare-fun |__ADDRESS_OF_main::in_buf_save| () Real)
(declare-fun |*(unsigned_char)*@1| (Real) Real)
(declare-fun |parse_header::l@6| () Real)
(declare-fun |parse_header::in_len@2| () Real)
(declare-fun |__ADDRESS_OF_parse_header::__CPAchecker_TMP_3| () Real)
(declare-fun LZO_E_OK@2 () Real)
(declare-fun |parse_header::end@2| () Real)
(declare-fun |main::r@2| () Real)
(declare-fun |parse_header::version@3| () Real)
(declare-fun |parse_header::l@3| () Real)
(declare-fun |main::in_len@2| () Real)
(declare-fun |__ADDRESS_OF_main::src_len| () Real)
(declare-fun |parse_header::__CPAchecker_TMP_0@7| () Real)
(declare-fun *signed_long_int@5 (Real) Real)
(declare-fun |parse_header::parse@2| () Real)
(declare-fun |parse_header::l@11| () Real)
(declare-fun *signed_int@1 (Real) Real)
(declare-fun |parse_header::input@2| () Real)
(declare-fun *signed_long_int@3 (Real) Real)
(declare-fun |main::in_len@4| () Real)
(declare-fun |parse_header::parse@12| () Real)
(declare-fun |main::__CPAchecker_TMP_1@3| () Real)
(declare-fun __ADDRESS_OF_lzop_magic () Real)
(define-fun .def_1494 () Bool (<= (to_real 0) Num@5))
(define-fun .def_15195 () Bool (not .def_1494))
(define-fun .def_565 () Real (* (to_real (- 1)) Num@5))
(define-fun .def_566 () Real (+ Num@4 .def_565))
(define-fun .def_15192 () Bool (= .def_566 (to_real 1)))
(define-fun .def_15187 () Bool (= |main::in_buf@8| |__ADDRESS_OF___VERIFIER_successful_alloc_*void#34|))
(define-fun .def_15183 () Real (* (to_real (- 1)) |__ADDRESS_OF___VERIFIER_successful_alloc_*void#34|))
(define-fun .def_15184 () Real (+ |__ADDRESS_OF_main::skip| .def_15183))
(define-fun .def_15185 () Bool (<= .def_15184 (to_real (- 4))))
(define-fun .def_103 () Bool (<= |__ADDRESS_OF_main::skip| (to_real (- 4))))
(define-fun .def_104 () Bool (not .def_103))
(define-fun .def_15186 () Bool (and .def_104 .def_15185))
(define-fun .def_15188 () Bool (and .def_15186 .def_15187))
(define-fun .def_655 () Real (* (to_real (- 1)) |main::in_len@4|))
(define-fun .def_15170 () Real (+ |main::in_len@3| .def_655))
(define-fun .def_15171 () Bool (= .def_15170 (to_real 4)))
(define-fun .def_683 () Real (* (to_real (- 1)) |main::in_buf@7|))
(define-fun .def_684 () Real (+ |main::in_buf@6| .def_683))
(define-fun .def_685 () Bool (= .def_684 (to_real (- 16))))
(define-fun .def_15172 () Bool (and .def_685 .def_15171))
(define-fun .def_182 () Real (* (to_real (- 1)) Num@3))
(define-fun .def_183 () Real (+ Num@2 .def_182))
(define-fun .def_15092 () Bool (= .def_183 (to_real 1)))
(define-fun .def_15087 () Bool (= |main::in_buf@3| |__ADDRESS_OF___VERIFIER_successful_alloc_*void#33|))
(define-fun .def_15083 () Real (* (to_real (- 1)) |__ADDRESS_OF___VERIFIER_successful_alloc_*void#33|))
(define-fun .def_15084 () Real (+ |__ADDRESS_OF___VERIFIER_successful_alloc_*void#0| .def_15083))
(define-fun .def_15085 () Bool (<= .def_15084 (to_real (- 262144))))
(define-fun .def_203 () Bool (<= |__ADDRESS_OF___VERIFIER_successful_alloc_*void#0| (to_real (- 262144))))
(define-fun .def_204 () Bool (not .def_203))
(define-fun .def_15086 () Bool (and .def_204 .def_15085))
(define-fun .def_15088 () Bool (and .def_15086 .def_15087))
(define-fun .def_168 () Bool (= |main::input@1| (to_real 0)))
(define-fun .def_162 () Bool (= |main::out_buf@3| (to_real 0)))
(define-fun .def_165 () Bool (not .def_162))
(define-fun .def_159 () Bool (= |main::out_buf@3| |__ADDRESS_OF___VERIFIER_successful_alloc_*void#0|))
(define-fun .def_155 () Real (* (to_real (- 1)) |__ADDRESS_OF___VERIFIER_successful_alloc_*void#0|))
(define-fun .def_156 () Real (+ |__ADDRESS_OF_main::tmp| .def_155))
(define-fun .def_157 () Bool (<= .def_156 (to_real (- 4))))
(define-fun .def_153 () Bool (<= |__ADDRESS_OF_main::tmp| (to_real (- 4))))
(define-fun .def_154 () Bool (not .def_153))
(define-fun .def_158 () Bool (and .def_154 .def_157))
(define-fun .def_160 () Bool (and .def_158 .def_159))
(define-fun .def_146 () Bool (= |main::flush@1| (to_real 0)))
(define-fun .def_149 () Bool (not .def_146))
(define-fun .def_137 () Bool (= |main::output@1| (to_real 0)))
(define-fun .def_11 () Bool (<= __ADDRESS_OF_lzop_magic (to_real 0)))
(define-fun .def_12 () Bool (not .def_11))
(define-fun .def_9 () Real (__BASE_ADDRESS_OF__ __ADDRESS_OF_lzop_magic))
(define-fun .def_10 () Bool (= __ADDRESS_OF_lzop_magic .def_9))
(define-fun .def_122 () Bool (and .def_10 .def_12))
(define-fun .def_63 () Real (__BASE_ADDRESS_OF__ __ADDRESS_OF_LZO_E_OK))
(define-fun .def_64 () Bool (= __ADDRESS_OF_LZO_E_OK .def_63))
(define-fun .def_123 () Bool (and .def_64 .def_122))
(define-fun .def_68 () Real (__BASE_ADDRESS_OF__ __ADDRESS_OF_Num))
(define-fun .def_69 () Bool (= __ADDRESS_OF_Num .def_68))
(define-fun .def_124 () Bool (and .def_69 .def_123))
(define-fun .def_73 () Real (__BASE_ADDRESS_OF__ |__ADDRESS_OF_main::r|))
(define-fun .def_74 () Bool (= |__ADDRESS_OF_main::r| .def_73))
(define-fun .def_125 () Bool (and .def_74 .def_124))
(define-fun .def_78 () Real (__BASE_ADDRESS_OF__ |__ADDRESS_OF_main::skip|))
(define-fun .def_79 () Bool (= |__ADDRESS_OF_main::skip| .def_78))
(define-fun .def_126 () Bool (and .def_79 .def_125))
(define-fun .def_86 () Real (* (to_real (- 1)) |__ADDRESS_OF_main::skip|))
(define-fun .def_87 () Real (+ __ADDRESS_OF_lzop_magic .def_86))
(define-fun .def_88 () Bool (<= .def_87 (to_real (- 9))))
(define-fun .def_83 () Bool (<= __ADDRESS_OF_lzop_magic (to_real (- 9))))
(define-fun .def_84 () Bool (not .def_83))
(define-fun .def_89 () Bool (and .def_84 .def_88))
(define-fun .def_127 () Bool (and .def_89 .def_126))
(define-fun .def_93 () Real (__BASE_ADDRESS_OF__ |__ADDRESS_OF_main::src_len|))
(define-fun .def_94 () Bool (= |__ADDRESS_OF_main::src_len| .def_93))
(define-fun .def_128 () Bool (and .def_94 .def_127))
(define-fun .def_96 () Real (__BASE_ADDRESS_OF__ |__ADDRESS_OF_main::dst_len|))
(define-fun .def_97 () Bool (= |__ADDRESS_OF_main::dst_len| .def_96))
(define-fun .def_129 () Bool (and .def_97 .def_128))
(define-fun .def_99 () Real (__BASE_ADDRESS_OF__ |__ADDRESS_OF_main::tmp|))
(define-fun .def_100 () Bool (= |__ADDRESS_OF_main::tmp| .def_99))
(define-fun .def_130 () Bool (and .def_100 .def_129))
(define-fun .def_105 () Real (* (to_real (- 1)) |__ADDRESS_OF_main::tmp|))
(define-fun .def_106 () Real (+ |__ADDRESS_OF_main::skip| .def_105))
(define-fun .def_107 () Bool (<= .def_106 (to_real (- 4))))
(define-fun .def_108 () Bool (and .def_104 .def_107))
(define-fun .def_131 () Bool (and .def_108 .def_130))
(define-fun .def_110 () Real (__BASE_ADDRESS_OF__ |__ADDRESS_OF_main::in_buf|))
(define-fun .def_111 () Bool (= |__ADDRESS_OF_main::in_buf| .def_110))
(define-fun .def_132 () Bool (and .def_111 .def_131))
(define-fun .def_113 () Real (__BASE_ADDRESS_OF__ |__ADDRESS_OF_main::in_buf_save|))
(define-fun .def_114 () Bool (= |__ADDRESS_OF_main::in_buf_save| .def_113))
(define-fun .def_133 () Bool (and .def_114 .def_132))
(define-fun .def_116 () Real (__BASE_ADDRESS_OF__ |__ADDRESS_OF_main::out_buf|))
(define-fun .def_117 () Bool (= |__ADDRESS_OF_main::out_buf| .def_116))
(define-fun .def_134 () Bool (and .def_117 .def_133))
(define-fun .def_66 () Bool (= LZO_E_OK@2 (to_real 0)))
(define-fun .def_58 () Real (+ __ADDRESS_OF_lzop_magic (to_real 8)))
(define-fun .def_59 () Real (*unsigned_char@1 .def_58))
(define-fun .def_60 () Bool (= .def_59 (to_real 10)))
(define-fun .def_53 () Real (+ __ADDRESS_OF_lzop_magic (to_real 7)))
(define-fun .def_54 () Real (*unsigned_char@1 .def_53))
(define-fun .def_55 () Bool (= .def_54 (to_real 26)))
(define-fun .def_47 () Real (+ __ADDRESS_OF_lzop_magic (to_real 6)))
(define-fun .def_48 () Real (*unsigned_char@1 .def_47))
(define-fun .def_49 () Bool (= .def_48 (to_real 10)))
(define-fun .def_41 () Real (+ __ADDRESS_OF_lzop_magic (to_real 5)))
(define-fun .def_42 () Real (*unsigned_char@1 .def_41))
(define-fun .def_43 () Bool (= .def_42 (to_real 13)))
(define-fun .def_35 () Real (+ __ADDRESS_OF_lzop_magic (to_real 4)))
(define-fun .def_36 () Real (*unsigned_char@1 .def_35))
(define-fun .def_37 () Bool (= .def_36 (to_real 0)))
(define-fun .def_30 () Real (+ __ADDRESS_OF_lzop_magic (to_real 3)))
(define-fun .def_31 () Real (*unsigned_char@1 .def_30))
(define-fun .def_32 () Bool (= .def_31 (to_real 79)))
(define-fun .def_24 () Real (+ __ADDRESS_OF_lzop_magic (to_real 2)))
(define-fun .def_25 () Real (*unsigned_char@1 .def_24))
(define-fun .def_26 () Bool (= .def_25 (to_real 90)))
(define-fun .def_18 () Real (+ __ADDRESS_OF_lzop_magic (to_real 1)))
(define-fun .def_19 () Real (*unsigned_char@1 .def_18))
(define-fun .def_20 () Bool (= .def_19 (to_real 76)))
(define-fun .def_15 () Real (*unsigned_char@1 __ADDRESS_OF_lzop_magic))
(define-fun .def_16 () Bool (= .def_15 (to_real 137)))
(define-fun .def_21 () Bool (and .def_16 .def_20))
(define-fun .def_27 () Bool (and .def_21 .def_26))
(define-fun .def_33 () Bool (and .def_27 .def_32))
(define-fun .def_38 () Bool (and .def_33 .def_37))
(define-fun .def_44 () Bool (and .def_38 .def_43))
(define-fun .def_50 () Bool (and .def_44 .def_49))
(define-fun .def_56 () Bool (and .def_50 .def_55))
(define-fun .def_61 () Bool (and .def_56 .def_60))
(define-fun .def_118 () Bool (and .def_61 .def_66))
(define-fun .def_71 () Bool (= Num@2 (to_real 2)))
(define-fun .def_119 () Bool (and .def_71 .def_118))
(define-fun .def_76 () Bool (= |main::r@2| (to_real 0)))
(define-fun .def_120 () Bool (and .def_76 .def_119))
(define-fun .def_91 () Bool (= |main::skip@2| (to_real 0)))
(define-fun .def_121 () Bool (and .def_91 .def_120))
(define-fun .def_135 () Bool (and .def_121 .def_134))
(define-fun .def_139 () Bool (and .def_135 .def_137))
(define-fun .def_150 () Bool (and .def_139 .def_149))
(define-fun .def_161 () Bool (and .def_150 .def_160))
(define-fun .def_166 () Bool (and .def_161 .def_165))
(define-fun .def_170 () Bool (and .def_166 .def_168))
(define-fun .def_15080 () Bool (and .def_168 .def_170))
(define-fun .def_174 () Bool (= |main::fill@1| (to_real 0)))
(define-fun .def_177 () Bool (not .def_174))
(define-fun .def_15081 () Bool (and .def_177 .def_15080))
(define-fun .def_15089 () Bool (and .def_15081 .def_15088))
(define-fun .def_212 () Bool (= |main::in_buf@3| (to_real 0)))
(define-fun .def_215 () Bool (not .def_212))
(define-fun .def_15090 () Bool (and .def_215 .def_15089))
(define-fun .def_15093 () Bool (and .def_15090 .def_15092))
(define-fun .def_14450 () Bool (<= (to_real 0) Num@3))
(define-fun .def_15095 () Bool (and .def_14450 .def_15093))
(define-fun .def_275 () Bool (= |main::in_buf@3| |main::in_buf_save@3|))
(define-fun .def_15096 () Bool (and .def_275 .def_15095))
(define-fun .def_278 () Bool (= |main::posp@1| (to_real 0)))
(define-fun .def_281 () Bool (not .def_278))
(define-fun .def_15097 () Bool (and .def_281 .def_15096))
(define-fun .def_283 () Real (*signed_long_int@2 |main::posp@1|))
(define-fun .def_284 () Bool (= .def_283 (to_real 0)))
(define-fun .def_15098 () Bool (and .def_284 .def_15097))
(define-fun .def_15099 () Bool (and .def_177 .def_15098))
(define-fun .def_294 () Real (* (to_real (- 1)) |main::in_buf@4|))
(define-fun .def_295 () Real (+ |main::in_buf@3| .def_294))
(define-fun .def_296 () Bool (= .def_295 (to_real (- 1188))))
(define-fun .def_15100 () Bool (and .def_296 .def_15099))
(define-fun .def_306 () Real (__BASE_ADDRESS_OF__ |__ADDRESS_OF_main::__CPAchecker_TMP_1|))
(define-fun .def_307 () Bool (= |__ADDRESS_OF_main::__CPAchecker_TMP_1| .def_306))
(define-fun .def_15101 () Bool (and .def_307 .def_15100))
(define-fun .def_317 () Bool (= |main::in_len@2| |parse_header::in_len@2|))
(define-fun .def_314 () Bool (= |__ADDRESS_OF_main::skip| |parse_header::skip@2|))
(define-fun .def_310 () Bool (= |main::in_buf@4| |parse_header::input@2|))
(define-fun .def_315 () Bool (and .def_310 .def_314))
(define-fun .def_318 () Bool (and .def_315 .def_317))
(define-fun .def_311 () Real (*signed_long_int@2 |__ADDRESS_OF_main::skip|))
(define-fun .def_312 () Bool (= |main::skip@2| .def_311))
(define-fun .def_319 () Bool (and .def_312 .def_318))
(define-fun .def_15102 () Bool (and .def_319 .def_15101))
(define-fun .def_325 () Real (__BASE_ADDRESS_OF__ |__ADDRESS_OF_parse_header::parse|))
(define-fun .def_326 () Bool (= |__ADDRESS_OF_parse_header::parse| .def_325))
(define-fun .def_322 () Real (__BASE_ADDRESS_OF__ |__ADDRESS_OF_parse_header::l|))
(define-fun .def_323 () Bool (= |__ADDRESS_OF_parse_header::l| .def_322))
(define-fun .def_343 () Bool (and .def_323 .def_326))
(define-fun .def_330 () Real (__BASE_ADDRESS_OF__ |__ADDRESS_OF_parse_header::end|))
(define-fun .def_331 () Bool (= |__ADDRESS_OF_parse_header::end| .def_330))
(define-fun .def_344 () Bool (and .def_331 .def_343))
(define-fun .def_340 () Real (__BASE_ADDRESS_OF__ |__ADDRESS_OF_parse_header::version|))
(define-fun .def_341 () Bool (= |__ADDRESS_OF_parse_header::version| .def_340))
(define-fun .def_345 () Bool (and .def_341 .def_344))
(define-fun .def_335 () Real (* (to_real (- 1)) |parse_header::end@2|))
(define-fun .def_332 () Real (* (to_real 4) |parse_header::in_len@2|))
(define-fun .def_336 () Real (+ .def_332 .def_335))
(define-fun .def_337 () Real (+ |parse_header::input@2| .def_336))
(define-fun .def_338 () Bool (= .def_337 (to_real 0)))
(define-fun .def_328 () Bool (= |parse_header::input@2| |parse_header::parse@2|))
(define-fun .def_342 () Bool (and .def_328 .def_338))
(define-fun .def_346 () Bool (and .def_342 .def_345))
(define-fun .def_15103 () Bool (and .def_346 .def_15102))
(define-fun .def_349 () Bool (<= (to_real 33) |parse_header::in_len@2|))
(define-fun .def_15104 () Bool (and .def_349 .def_15103))
(define-fun .def_355 () Bool (= |parse_header::l@3| (to_real 0)))
(define-fun .def_15105 () Bool (and .def_355 .def_15104))
(define-fun .def_357 () Bool (<= (to_real 9) |parse_header::l@3|))
(define-fun .def_358 () Bool (not .def_357))
(define-fun .def_15106 () Bool (and .def_358 .def_15105))
(define-fun .def_368 () Real (* (to_real (- 1)) |parse_header::parse@3|))
(define-fun .def_369 () Real (+ |parse_header::parse@2| .def_368))
(define-fun .def_517 () Bool (= .def_369 (to_real (- 4))))
(define-fun .def_515 () Bool (= |parse_header::parse@2| |parse_header::__CPAchecker_TMP_0@2|))
(define-fun .def_518 () Bool (and .def_515 .def_517))
(define-fun .def_512 () Real (__BASE_ADDRESS_OF__ |__ADDRESS_OF_parse_header::__CPAchecker_TMP_0|))
(define-fun .def_513 () Bool (= |__ADDRESS_OF_parse_header::__CPAchecker_TMP_0| .def_512))
(define-fun .def_519 () Bool (and .def_513 .def_518))
(define-fun .def_15107 () Bool (and .def_519 .def_15106))
(define-fun .def_522 () Real (|*(unsigned_char)*@1| __ADDRESS_OF_lzop_magic))
(define-fun .def_523 () Real (+ |parse_header::l@3| .def_522))
(define-fun .def_524 () Real (*unsigned_char@1 .def_523))
(define-fun .def_521 () Real (*signed_int@1 |parse_header::__CPAchecker_TMP_0@2|))
(define-fun .def_525 () Bool (= .def_521 .def_524))
(define-fun .def_15108 () Bool (and .def_525 .def_15107))
(define-fun .def_531 () Real (* (to_real (- 1)) |parse_header::l@4|))
(define-fun .def_532 () Real (+ |parse_header::l@3| .def_531))
(define-fun .def_533 () Bool (= .def_532 (to_real (- 1))))
(define-fun .def_15109 () Bool (and .def_533 .def_15108))
(define-fun .def_1821 () Bool (<= (to_real 9) |parse_header::l@4|))
(define-fun .def_1822 () Bool (not .def_1821))
(define-fun .def_15110 () Bool (and .def_1822 .def_15109))
(define-fun .def_1918 () Bool (= |parse_header::parse@3| |parse_header::__CPAchecker_TMP_0@3|))
(define-fun .def_380 () Real (* (to_real (- 1)) |parse_header::parse@4|))
(define-fun .def_381 () Real (+ |parse_header::parse@3| .def_380))
(define-fun .def_382 () Bool (= .def_381 (to_real (- 4))))
(define-fun .def_1919 () Bool (and .def_382 .def_1918))
(define-fun .def_1920 () Bool (and .def_513 .def_1919))
(define-fun .def_15111 () Bool (and .def_1920 .def_15110))
(define-fun .def_1923 () Real (+ |parse_header::l@4| .def_522))
(define-fun .def_1924 () Real (*unsigned_char@1 .def_1923))
(define-fun .def_1922 () Real (*signed_int@1 |parse_header::__CPAchecker_TMP_0@3|))
(define-fun .def_1925 () Bool (= .def_1922 .def_1924))
(define-fun .def_15112 () Bool (and .def_1925 .def_15111))
(define-fun .def_1931 () Real (* (to_real (- 1)) |parse_header::l@5|))
(define-fun .def_1932 () Real (+ |parse_header::l@4| .def_1931))
(define-fun .def_1933 () Bool (= .def_1932 (to_real (- 1))))
(define-fun .def_15113 () Bool (and .def_1933 .def_15112))
(define-fun .def_2685 () Bool (<= (to_real 9) |parse_header::l@5|))
(define-fun .def_2686 () Bool (not .def_2685))
(define-fun .def_15114 () Bool (and .def_2686 .def_15113))
(define-fun .def_2779 () Bool (= |parse_header::parse@4| |parse_header::__CPAchecker_TMP_0@4|))
(define-fun .def_406 () Real (* (to_real (- 1)) |parse_header::parse@5|))
(define-fun .def_407 () Real (+ |parse_header::parse@4| .def_406))
(define-fun .def_1833 () Bool (= .def_407 (to_real (- 4))))
(define-fun .def_2780 () Bool (and .def_1833 .def_2779))
(define-fun .def_2781 () Bool (and .def_513 .def_2780))
(define-fun .def_15115 () Bool (and .def_2781 .def_15114))
(define-fun .def_2784 () Real (+ .def_522 |parse_header::l@5|))
(define-fun .def_2785 () Real (*unsigned_char@1 .def_2784))
(define-fun .def_2783 () Real (*signed_int@1 |parse_header::__CPAchecker_TMP_0@4|))
(define-fun .def_2786 () Bool (= .def_2783 .def_2785))
(define-fun .def_15116 () Bool (and .def_2786 .def_15115))
(define-fun .def_2792 () Real (* (to_real (- 1)) |parse_header::l@6|))
(define-fun .def_2793 () Real (+ |parse_header::l@5| .def_2792))
(define-fun .def_2794 () Bool (= .def_2793 (to_real (- 1))))
(define-fun .def_15117 () Bool (and .def_2794 .def_15116))
(define-fun .def_3020 () Bool (<= (to_real 9) |parse_header::l@6|))
(define-fun .def_3021 () Bool (not .def_3020))
(define-fun .def_15118 () Bool (and .def_3021 .def_15117))
(define-fun .def_3111 () Bool (= |parse_header::parse@5| |parse_header::__CPAchecker_TMP_0@5|))
(define-fun .def_427 () Real (* (to_real (- 1)) |parse_header::parse@6|))
(define-fun .def_428 () Real (+ |parse_header::parse@5| .def_427))
(define-fun .def_2697 () Bool (= .def_428 (to_real (- 4))))
(define-fun .def_3112 () Bool (and .def_2697 .def_3111))
(define-fun .def_3113 () Bool (and .def_513 .def_3112))
(define-fun .def_15119 () Bool (and .def_3113 .def_15118))
(define-fun .def_3116 () Real (+ .def_522 |parse_header::l@6|))
(define-fun .def_3117 () Real (*unsigned_char@1 .def_3116))
(define-fun .def_3115 () Real (*signed_int@1 |parse_header::__CPAchecker_TMP_0@5|))
(define-fun .def_3118 () Bool (= .def_3115 .def_3117))
(define-fun .def_15120 () Bool (and .def_3118 .def_15119))
(define-fun .def_3124 () Real (* (to_real (- 1)) |parse_header::l@7|))
(define-fun .def_3125 () Real (+ |parse_header::l@6| .def_3124))
(define-fun .def_3126 () Bool (= .def_3125 (to_real (- 1))))
(define-fun .def_15121 () Bool (and .def_3126 .def_15120))
(define-fun .def_3414 () Bool (<= (to_real 9) |parse_header::l@7|))
(define-fun .def_3415 () Bool (not .def_3414))
(define-fun .def_15122 () Bool (and .def_3415 .def_15121))
(define-fun .def_3503 () Bool (= |parse_header::parse@6| |parse_header::__CPAchecker_TMP_0@6|))
(define-fun .def_435 () Real (* (to_real (- 1)) |parse_header::parse@7|))
(define-fun .def_436 () Real (+ |parse_header::parse@6| .def_435))
(define-fun .def_3032 () Bool (= .def_436 (to_real (- 4))))
(define-fun .def_3504 () Bool (and .def_3032 .def_3503))
(define-fun .def_3505 () Bool (and .def_513 .def_3504))
(define-fun .def_15123 () Bool (and .def_3505 .def_15122))
(define-fun .def_3508 () Real (+ .def_522 |parse_header::l@7|))
(define-fun .def_3509 () Real (*unsigned_char@1 .def_3508))
(define-fun .def_3507 () Real (*signed_int@1 |parse_header::__CPAchecker_TMP_0@6|))
(define-fun .def_3510 () Bool (= .def_3507 .def_3509))
(define-fun .def_15124 () Bool (and .def_3510 .def_15123))
(define-fun .def_3516 () Real (* (to_real (- 1)) |parse_header::l@8|))
(define-fun .def_3517 () Real (+ |parse_header::l@7| .def_3516))
(define-fun .def_3518 () Bool (= .def_3517 (to_real (- 1))))
(define-fun .def_15125 () Bool (and .def_3518 .def_15124))
(define-fun .def_3864 () Bool (<= (to_real 9) |parse_header::l@8|))
(define-fun .def_3865 () Bool (not .def_3864))
(define-fun .def_15126 () Bool (and .def_3865 .def_15125))
(define-fun .def_3953 () Bool (= |parse_header::parse@7| |parse_header::__CPAchecker_TMP_0@7|))
(define-fun .def_449 () Real (* (to_real (- 1)) |parse_header::parse@8|))
(define-fun .def_450 () Real (+ |parse_header::parse@7| .def_449))
(define-fun .def_451 () Bool (= .def_450 (to_real (- 4))))
(define-fun .def_3954 () Bool (and .def_451 .def_3953))
(define-fun .def_3955 () Bool (and .def_513 .def_3954))
(define-fun .def_15127 () Bool (and .def_3955 .def_15126))
(define-fun .def_3958 () Real (+ .def_522 |parse_header::l@8|))
(define-fun .def_3959 () Real (*unsigned_char@1 .def_3958))
(define-fun .def_3957 () Real (*signed_int@1 |parse_header::__CPAchecker_TMP_0@7|))
(define-fun .def_3960 () Bool (= .def_3957 .def_3959))
(define-fun .def_15128 () Bool (and .def_3960 .def_15127))
(define-fun .def_3966 () Real (* (to_real (- 1)) |parse_header::l@9|))
(define-fun .def_3967 () Real (+ |parse_header::l@8| .def_3966))
(define-fun .def_3968 () Bool (= .def_3967 (to_real (- 1))))
(define-fun .def_15129 () Bool (and .def_3968 .def_15128))
(define-fun .def_4382 () Bool (<= (to_real 9) |parse_header::l@9|))
(define-fun .def_4383 () Bool (not .def_4382))
(define-fun .def_15130 () Bool (and .def_4383 .def_15129))
(define-fun .def_4471 () Bool (= |parse_header::parse@8| |parse_header::__CPAchecker_TMP_0@8|))
(define-fun .def_473 () Real (* (to_real (- 1)) |parse_header::parse@9|))
(define-fun .def_1869 () Real (+ |parse_header::parse@8| .def_473))
(define-fun .def_1870 () Bool (= .def_1869 (to_real (- 4))))
(define-fun .def_4472 () Bool (and .def_1870 .def_4471))
(define-fun .def_4473 () Bool (and .def_513 .def_4472))
(define-fun .def_15131 () Bool (and .def_4473 .def_15130))
(define-fun .def_4476 () Real (+ .def_522 |parse_header::l@9|))
(define-fun .def_4477 () Real (*unsigned_char@1 .def_4476))
(define-fun .def_4475 () Real (*signed_int@1 |parse_header::__CPAchecker_TMP_0@8|))
(define-fun .def_4478 () Bool (= .def_4475 .def_4477))
(define-fun .def_15132 () Bool (and .def_4478 .def_15131))
(define-fun .def_4484 () Real (* (to_real (- 1)) |parse_header::l@10|))
(define-fun .def_4485 () Real (+ |parse_header::l@9| .def_4484))
(define-fun .def_4486 () Bool (= .def_4485 (to_real (- 1))))
(define-fun .def_15133 () Bool (and .def_4486 .def_15132))
(define-fun .def_4978 () Bool (<= (to_real 9) |parse_header::l@10|))
(define-fun .def_4979 () Bool (not .def_4978))
(define-fun .def_15134 () Bool (and .def_4979 .def_15133))
(define-fun .def_5067 () Bool (= |parse_header::parse@9| |parse_header::__CPAchecker_TMP_0@9|))
(define-fun .def_1891 () Real (* (to_real (- 1)) |parse_header::parse@10|))
(define-fun .def_2730 () Real (+ |parse_header::parse@9| .def_1891))
(define-fun .def_2731 () Bool (= .def_2730 (to_real (- 4))))
(define-fun .def_5068 () Bool (and .def_2731 .def_5067))
(define-fun .def_5069 () Bool (and .def_513 .def_5068))
(define-fun .def_15135 () Bool (and .def_5069 .def_15134))
(define-fun .def_5072 () Real (+ .def_522 |parse_header::l@10|))
(define-fun .def_5073 () Real (*unsigned_char@1 .def_5072))
(define-fun .def_5071 () Real (*signed_int@1 |parse_header::__CPAchecker_TMP_0@9|))
(define-fun .def_5074 () Bool (= .def_5071 .def_5073))
(define-fun .def_15136 () Bool (and .def_5074 .def_15135))
(define-fun .def_5080 () Real (* (to_real (- 1)) |parse_header::l@11|))
(define-fun .def_5081 () Real (+ |parse_header::l@10| .def_5080))
(define-fun .def_5082 () Bool (= .def_5081 (to_real (- 1))))
(define-fun .def_15137 () Bool (and .def_5082 .def_15136))
(define-fun .def_5655 () Bool (<= (to_real 9) |parse_header::l@11|))
(define-fun .def_5656 () Bool (not .def_5655))
(define-fun .def_15138 () Bool (and .def_5656 .def_15137))
(define-fun .def_5744 () Bool (= |parse_header::parse@10| |parse_header::__CPAchecker_TMP_0@10|))
(define-fun .def_2752 () Real (* (to_real (- 1)) |parse_header::parse@11|))
(define-fun .def_3062 () Real (+ |parse_header::parse@10| .def_2752))
(define-fun .def_3063 () Bool (= .def_3062 (to_real (- 4))))
(define-fun .def_5745 () Bool (and .def_3063 .def_5744))
(define-fun .def_5746 () Bool (and .def_513 .def_5745))
(define-fun .def_15139 () Bool (and .def_5746 .def_15138))
(define-fun .def_5749 () Real (+ .def_522 |parse_header::l@11|))
(define-fun .def_5750 () Real (*unsigned_char@1 .def_5749))
(define-fun .def_5748 () Real (*signed_int@1 |parse_header::__CPAchecker_TMP_0@10|))
(define-fun .def_5751 () Bool (= .def_5748 .def_5750))
(define-fun .def_15140 () Bool (and .def_5751 .def_15139))
(define-fun .def_5757 () Real (* (to_real (- 1)) |parse_header::l@12|))
(define-fun .def_5758 () Real (+ |parse_header::l@11| .def_5757))
(define-fun .def_5759 () Bool (= .def_5758 (to_real (- 1))))
(define-fun .def_15141 () Bool (and .def_5759 .def_15140))
(define-fun .def_6424 () Bool (<= (to_real 9) |parse_header::l@12|))
(define-fun .def_15142 () Bool (and .def_6424 .def_15141))
(define-fun .def_6427 () Real (get_unaligned_be16 |parse_header::parse@11|))
(define-fun .def_6428 () Bool (= |parse_header::version@3| .def_6427))
(define-fun .def_15143 () Bool (and .def_6428 .def_15142))
(define-fun .def_3084 () Real (* (to_real (- 1)) |parse_header::parse@12|))
(define-fun .def_3454 () Real (+ |parse_header::parse@11| .def_3084))
(define-fun .def_6431 () Bool (= .def_3454 (to_real (- 28))))
(define-fun .def_15144 () Bool (and .def_6431 .def_15143))
(define-fun .def_373 () Bool (<= (to_real 2368) |parse_header::version@3|))
(define-fun .def_15145 () Bool (and .def_373 .def_15144))
(define-fun .def_3476 () Real (* (to_real (- 1)) |parse_header::parse@13|))
(define-fun .def_3904 () Real (+ |parse_header::parse@12| .def_3476))
(define-fun .def_3905 () Bool (= .def_3904 (to_real (- 4))))
(define-fun .def_15146 () Bool (and .def_3905 .def_15145))
(define-fun .def_388 () Real (__BASE_ADDRESS_OF__ |__ADDRESS_OF_parse_header::__CPAchecker_TMP_2|))
(define-fun .def_389 () Bool (= |__ADDRESS_OF_parse_header::__CPAchecker_TMP_2| .def_388))
(define-fun .def_15147 () Bool (and .def_389 .def_15146))
(define-fun .def_6439 () Real (get_unaligned_be32 |parse_header::parse@13|))
(define-fun .def_6440 () Bool (= |parse_header::__CPAchecker_TMP_2@3| .def_6439))
(define-fun .def_15148 () Bool (and .def_6440 .def_15147))
(define-fun .def_396 () Real (_&_ |parse_header::__CPAchecker_TMP_2@3| (to_real 2048)))
(define-fun .def_397 () Bool (= .def_396 (to_real 0)))
(define-fun .def_15149 () Bool (and .def_397 .def_15148))
(define-fun .def_3926 () Real (* (to_real (- 1)) |parse_header::parse@14|))
(define-fun .def_4422 () Real (+ |parse_header::parse@13| .def_3926))
(define-fun .def_5012 () Bool (= .def_4422 (to_real (- 16))))
(define-fun .def_15150 () Bool (and .def_5012 .def_15149))
(define-fun .def_4430 () Real (+ |parse_header::end@2| .def_3926))
(define-fun .def_6447 () Bool (<= (to_real 52) .def_4430))
(define-fun .def_15151 () Bool (and .def_6447 .def_15150))
(define-fun .def_4444 () Real (* (to_real (- 1)) |parse_header::parse@15|))
(define-fun .def_5018 () Real (+ |parse_header::parse@14| .def_4444))
(define-fun .def_6453 () Bool (= .def_5018 (to_real (- 32))))
(define-fun .def_15152 () Bool (and .def_6453 .def_15151))
(define-fun .def_15153 () Bool (and .def_373 .def_15152))
(define-fun .def_5040 () Real (* (to_real (- 1)) |parse_header::parse@16|))
(define-fun .def_5695 () Real (+ |parse_header::parse@15| .def_5040))
(define-fun .def_6458 () Bool (= .def_5695 (to_real (- 16))))
(define-fun .def_15154 () Bool (and .def_6458 .def_15153))
(define-fun .def_5717 () Real (* (to_real (- 1)) |parse_header::parse@17|))
(define-fun .def_6464 () Real (+ |parse_header::parse@16| .def_5717))
(define-fun .def_6465 () Bool (= .def_6464 (to_real (- 4))))
(define-fun .def_6462 () Bool (= |parse_header::__CPAchecker_TMP_3@2| |parse_header::parse@16|))
(define-fun .def_6468 () Bool (and .def_6462 .def_6465))
(define-fun .def_452 () Real (*signed_int@1 |parse_header::__CPAchecker_TMP_3@2|))
(define-fun .def_6467 () Bool (= .def_452 |parse_header::l@13|))
(define-fun .def_6469 () Bool (and .def_6467 .def_6468))
(define-fun .def_443 () Real (__BASE_ADDRESS_OF__ |__ADDRESS_OF_parse_header::__CPAchecker_TMP_3|))
(define-fun .def_444 () Bool (= |__ADDRESS_OF_parse_header::__CPAchecker_TMP_3| .def_443))
(define-fun .def_6470 () Bool (and .def_444 .def_6469))
(define-fun .def_15155 () Bool (and .def_6470 .def_15154))
(define-fun .def_6475 () Real (* (to_real (- 4)) |parse_header::l@13|))
(define-fun .def_6476 () Real (+ .def_5717 .def_6475))
(define-fun .def_6477 () Real (+ |parse_header::end@2| .def_6476))
(define-fun .def_6478 () Bool (<= (to_real 16) .def_6477))
(define-fun .def_15156 () Bool (and .def_6478 .def_15155))
(define-fun .def_6486 () Real (* (to_real (- 1)) |parse_header::parse@18|))
(define-fun .def_481 () Real (*signed_long_int@3 |parse_header::skip@2|))
(define-fun .def_482 () Real (* (to_real 4) .def_481))
(define-fun .def_6493 () Real (+ .def_482 .def_6486))
(define-fun .def_6494 () Real (+ |parse_header::input@2| .def_6493))
(define-fun .def_6495 () Bool (= .def_6494 (to_real 0)))
(define-fun .def_6487 () Real (* (to_real 4) |parse_header::l@13|))
(define-fun .def_6488 () Real (+ .def_6487 .def_6486))
(define-fun .def_6489 () Real (+ |parse_header::parse@17| .def_6488))
(define-fun .def_6490 () Bool (= .def_6489 (to_real (- 16))))
(define-fun .def_6496 () Bool (and .def_6490 .def_6495))
(define-fun .def_490 () Bool (= |parse_header::__retval__@2| (to_real 1)))
(define-fun .def_6497 () Bool (and .def_490 .def_6496))
(define-fun .def_486 () Real (*signed_long_int@3 |__ADDRESS_OF_main::skip|))
(define-fun .def_487 () Bool (= .def_311 .def_486))
(define-fun .def_488 () Bool (or .def_314 .def_487))
(define-fun .def_6498 () Bool (and .def_488 .def_6497))
(define-fun .def_15157 () Bool (and .def_6498 .def_15156))
(define-fun .def_553 () Bool (= |parse_header::__retval__@2| |main::__CPAchecker_TMP_1@3|))
(define-fun .def_15158 () Bool (and .def_553 .def_15157))
(define-fun .def_556 () Bool (= |main::__CPAchecker_TMP_1@3| (to_real 0)))
(define-fun .def_559 () Bool (not .def_556))
(define-fun .def_15159 () Bool (and .def_559 .def_15158))
(define-fun .def_585 () Real (* (to_real (- 1)) |main::in_len@3|))
(define-fun .def_582 () Real (* (to_real (- 1)) .def_486))
(define-fun .def_586 () Real (+ .def_582 .def_585))
(define-fun .def_587 () Real (+ |main::in_len@2| .def_586))
(define-fun .def_588 () Bool (= .def_587 (to_real 0)))
(define-fun .def_578 () Real (* (to_real (- 1)) |main::in_buf@5|))
(define-fun .def_575 () Real (* (to_real 4) .def_486))
(define-fun .def_579 () Real (+ .def_575 .def_578))
(define-fun .def_580 () Real (+ |main::in_buf@4| .def_579))
(define-fun .def_581 () Bool (= .def_580 (to_real 0)))
(define-fun .def_589 () Bool (and .def_581 .def_588))
(define-fun .def_15160 () Bool (and .def_589 .def_15159))
(define-fun .def_15161 () Bool (and .def_177 .def_15160))
(define-fun .def_609 () Bool (= |main::in_buf_save@3| |main::in_buf@6|))
(define-fun .def_15162 () Bool (and .def_609 .def_15161))
(define-fun .def_15163 () Bool (and .def_281 .def_15162))
(define-fun .def_624 () Real (*signed_long_int@4 |__ADDRESS_OF_main::skip|))
(define-fun .def_625 () Bool (= .def_486 .def_624))
(define-fun .def_623 () Bool (= |__ADDRESS_OF_main::skip| |main::posp@1|))
(define-fun .def_626 () Bool (or .def_623 .def_625))
(define-fun .def_621 () Real (*signed_long_int@4 |main::posp@1|))
(define-fun .def_622 () Bool (= .def_486 .def_621))
(define-fun .def_627 () Bool (and .def_622 .def_626))
(define-fun .def_15164 () Bool (and .def_627 .def_15163))
(define-fun .def_15165 () Bool (and .def_177 .def_15164))
(define-fun .def_638 () Bool (<= (to_real 4) |main::in_len@3|))
(define-fun .def_15166 () Bool (and .def_638 .def_15165))
(define-fun .def_15167 () Bool (and .def_638 .def_15166))
(define-fun .def_677 () Real (get_unaligned_be32 |main::in_buf@6|))
(define-fun .def_679 () Bool (= .def_677 |main::dst_len@3|))
(define-fun .def_15168 () Bool (and .def_679 .def_15167))
(define-fun .def_15173 () Bool (and .def_15168 .def_15172))
(define-fun .def_693 () Bool (= |main::dst_len@3| (to_real 0)))
(define-fun .def_15174 () Bool (and .def_693 .def_15173))
(define-fun .def_15175 () Bool (and .def_281 .def_15174))
(define-fun .def_644 () Real (*signed_long_int@5 |__ADDRESS_OF_main::skip|))
(define-fun .def_650 () Bool (= .def_624 .def_644))
(define-fun .def_2604 () Bool (or .def_623 .def_650))
(define-fun .def_1356 () Real (*signed_long_int@5 |main::posp@1|))
(define-fun .def_2601 () Real (* (to_real (- 1)) .def_1356))
(define-fun .def_2602 () Real (+ .def_621 .def_2601))
(define-fun .def_2603 () Bool (= .def_2602 (to_real (- 4))))
(define-fun .def_2605 () Bool (and .def_2603 .def_2604))
(define-fun .def_15176 () Bool (and .def_2605 .def_15175))
(define-fun .def_222 () Real (* (to_real (- 1)) Num@4))
(define-fun .def_223 () Real (+ Num@3 .def_222))
(define-fun .def_224 () Bool (= .def_223 (to_real 1)))
(define-fun .def_15177 () Bool (and .def_224 .def_15176))
(define-fun .def_226 () Bool (<= (to_real 0) Num@4))
(define-fun .def_15178 () Bool (and .def_226 .def_15177))
(define-fun .def_15179 () Bool (and .def_168 .def_15178))
(define-fun .def_15180 () Bool (and .def_168 .def_15179))
(define-fun .def_15181 () Bool (and .def_177 .def_15180))
(define-fun .def_15189 () Bool (and .def_15181 .def_15188))
(define-fun .def_14851 () Bool (= |main::in_buf@8| (to_real 0)))
(define-fun .def_14854 () Bool (not .def_14851))
(define-fun .def_15190 () Bool (and .def_14854 .def_15189))
(define-fun .def_15193 () Bool (and .def_15190 .def_15192))
(define-fun .def_15196 () Bool (and .def_15193 .def_15195))
(define-fun .def_8772 () Bool (= |main::in_buf@8| |main::in_buf_save@4|))
(define-fun .def_15197 () Bool (and .def_8772 .def_15196))
(assert .def_15197)
